p cnf 22 106
c max 11 12 13 14 19 20 21 22 0
c ind 1 2 3 4 5 6 7 8 9 10 15 16 17 18 0
c p weight 4 0.9238795325112867384831361050601117312908172607421875 0
c p weight -4 1 0
c p weight 5 -0.382683432365089781779232680491986684501171112060546875 0
c p weight -5 1 0
c p weight 6 -1 0
c p weight -6 1 0
c p weight 9 -1 0
c p weight -9 1 0
c p weight 10 0.70710678118654752440084436210485 0
c p weight -10 1 0
c p weight 17 -1 0
c p weight -17 1 0
c p weight 18 0.70710678118654752440084436210485 0
c p weight -18 1 0
3 1 -2 0
-3 1 2 0
-4 1 0
3 -4 -2 0
-3 -4 2 0
3 4 -1 2 0
-3 4 -1 -2 0
-5 1 0
3 -5 2 0
-3 -5 -2 0
3 5 -1 -2 0
-3 5 -1 2 0
-6 1 0
-6 2 0
-6 -3 0
6 3 -1 -2 0
-9 -11 0
7 -11 -1 0
-7 -11 1 0
8 -11 -3 0
-8 -11 3 0
-10 -11 0
-9 -12 1 0
-9 -12 3 0
9 -12 -1 -3 0
7 -12 -3 0
-7 -12 3 0
8 -12 -1 0
-8 -12 1 0
-10 -12 0
-9 8 -13 0
-9 -13 1 0
-9 -13 -3 0
9 -8 -13 -1 3 0
-9 -14 1 0
-9 -14 3 0
-9 -8 -14 0
9 8 -14 -1 -3 0
7 -13 -1 0
7 -14 -1 0
-7 -13 1 0
-7 -14 1 0
8 -13 1 -3 0
8 -14 1 -3 0
-8 -13 1 3 0
-8 -14 1 3 0
10 -13 -1 0
10 -14 -1 0
-10 -13 1 0
-10 -14 1 0
11 12 13 14 0
-11 -12 0
-11 -13 0
-11 -14 0
-12 -13 0
-12 -14 0
-13 -14 0
-17 -19 0
15 -19 -7 0
-15 -19 7 0
16 -19 -8 0
-16 -19 8 0
-18 -19 0
-17 -20 7 0
-17 -20 8 0
17 -20 -7 -8 0
15 -20 -8 0
-15 -20 8 0
16 -20 -7 0
-16 -20 7 0
-18 -20 0
-17 16 -21 0
-17 -21 7 0
-17 -21 -8 0
17 -16 -21 -7 8 0
-17 -22 7 0
-17 -22 8 0
-17 -16 -22 0
17 16 -22 -7 -8 0
15 -21 -7 0
15 -22 -7 0
-15 -21 7 0
-15 -22 7 0
16 -21 7 -8 0
16 -22 7 -8 0
-16 -21 7 8 0
-16 -22 7 8 0
18 -21 -7 0
18 -22 -7 0
-18 -21 7 0
-18 -22 7 0
19 20 21 22 0
-19 -20 0
-19 -21 0
-19 -22 0
-20 -21 0
-20 -22 0
-21 -22 0
-20 -12 0
-22 -13 0
-21 -14 0
-11 19 0
15 -1 0
-15 1 0
16 -2 0
-16 2 0
